one atom primitive simple cubic bulk cel
   5.29177
     1.0000000000000000    0.0000000000000000    0.0000000000000000
     0.0000000000000000    1.0000000000000000    0.0000000000000000
     0.0000000000000000    0.0000000000000000    1.0000000000000000
   H
    2
Selective dynamics
Direct
  0.43 0 0 T T T
  0.57 0 0 T T T
